p cnf 10 50
4 -9 6 0
-10 -6 9 0
-9 -5 -10 0
10 1 -5 0
1 -3 -5 0
7 -9 -8 0
-9 -5 -6 0
6 2 -3 0
-3 6 -5 0
8 10 3 0
-7 -8 -3 0
2 -8 -4 0
-1 2 -8 0
9 -5 -7 0
5 7 1 0
-8 -4 -6 0
5 -8 4 0
4 2 -3 0
-8 3 4 0
-5 -9 4 0
-8 4 -7 0
-4 3 -8 0
-4 -10 -8 0
6 1 4 0
1 9 6 0
10 -4 -7 0
10 7 2 0
3 7 10 0
-9 6 8 0
9 -3 1 0
-6 10 5 0
-4 -8 -1 0
-9 7 -4 0
1 7 2 0
-4 -9 -10 0
-3 -10 7 0
5 -8 3 0
-5 -7 -2 0
3 5 -1 0
7 -6 3 0
-2 7 -6 0
5 6 -8 0
2 -1 -9 0
1 10 -9 0
-9 -3 4 0
-9 -7 8 0
9 6 -8 0
1 -9 -4 0
-9 1 8 0
5 3 1 0
